<number of tasks>
20


<number of equipment>
5


<cycle time>
1000


<investment costs>
1,23559
2,25895
3,11191
4,28137
5,17488


<task times>
1,119,74,-1,-1,171
2,130,-1,-1,89,232
3,93,68,-1,-1,136
4,87,52,-1,-1,114
5,125,77,-1,-1,240
6,102,-1,-1,56,145
7,111,79,-1,-1,150
8,144,-1,-1,60,178
9,97,-1,-1,74,150
10,112,-1,-1,66,166
11,98,-1,-1,48,158
12,-1,93,153,-1,-1
13,-1,108,191,-1,-1
14,117,-1,-1,176,187
15,-1,71,171,-1,-1
16,111,107,-1,-1,217
17,223,-1,-1,125,204
18,102,-1,-1,70,143
19,86,65,-1,-1,133
20,90,-1,-1,51,122


<precedence relations>
1,4
2,4
3,4
4,5
4,6
4,7
5,8
6,9
7,10
7,11
8,12
9,13
10,14
11,15
11,16
12,18
13,17
14,18
15,19
15,20


<task types>
1,2
2,3
3,2
4,2
5,2
6,3
7,2
8,3
9,3
10,3
11,3
12,1
13,1
14,3
15,1
16,2
17,3
18,3
19,2
20,3


<line depot>
1,2
2,1
3,0
4,0
5,1


<processing costs>
1,14400
2,14400
3,7200
4,7200
5,14400


<saving costs>
1,2355
2,2589
3,1119
4,2813
5,1748


<end>
